c uprop, v00.0, 
c reading from data/prog166.c.cnf
c done reading: 0.002446
p cnf 103 408
-54 -72 0
-57 -72 0
54 57 72 0
54 57 -79 0
-54 -57 -79 0
-54 57 79 0
54 -57 79 0
-61 72 0
-61 -62 0
61 62 -72 0
62 -68 -72 0
-62 -68 72 0
62 68 72 0
-62 68 -72 0
61 -71 0
-71 -73 0
-61 71 73 0
-61 73 -76 0
61 -73 -76 0
61 73 76 0
-61 -73 76 0
71 -77 0
-77 -80 0
-71 77 80 0
-56 -71 80 0
-56 71 -80 0
56 71 80 0
56 -71 -80 0
-53 77 0
-53 -59 0
53 59 -77 0
-52 59 -77 0
-52 -59 77 0
52 59 77 0
52 -59 -77 0
-51 53 0
-51 -65 0
51 -53 65 0
-50 -53 65 0
-50 53 -65 0
50 53 65 0
50 -53 -65 0
-49 51 0
-49 -69 0
49 -51 69 0
-48 -51 69 0
-48 51 -69 0
48 51 69 0
48 -51 -69 0
-47 57 0
-47 54 0
47 -54 -57 0
-46 -54 -57 0
-46 54 57 0
46 54 -57 0
46 -54 57 0
45 -57 -62 0
45 -47 -62 0
45 -47 -57 0
-45 57 62 0
-45 47 62 0
-45 47 57 0
-44 -45 62 0
-44 -45 57 0
-44 -45 47 0
44 45 -62 0
44 45 -57 0
44 45 -47 0
44 -47 -57 -62 0
-44 47 57 62 0
43 -62 -73 0
43 -45 -73 0
43 -45 -62 0
-43 62 73 0
-43 45 73 0
-43 45 62 0
-42 -43 73 0
-42 -43 62 0
-42 -43 45 0
42 43 -73 0
42 43 -62 0
42 43 -45 0
42 -45 -62 -73 0
-42 45 62 73 0
41 -73 -80 0
41 -43 -80 0
41 -43 -73 0
-41 73 80 0
-41 43 80 0
-41 43 73 0
-41 80 -82 0
-41 73 -82 0
-41 43 -82 0
41 -80 82 0
41 -73 82 0
41 -43 82 0
-43 -73 -80 82 0
43 73 80 -82 0
-59 -80 83 0
-41 -59 83 0
-41 -80 83 0
59 80 -83 0
41 59 -83 0
41 80 -83 0
59 -83 -84 0
80 -83 -84 0
41 -83 -84 0
-59 83 84 0
-80 83 84 0
-41 83 84 0
-41 -59 -80 84 0
41 59 80 -84 0
-59 -65 85 0
-65 -83 85 0
-59 -83 85 0
59 65 -85 0
65 83 -85 0
59 83 -85 0
65 -85 -86 0
59 -85 -86 0
83 -85 -86 0
-65 85 86 0
-59 85 86 0
-83 85 86 0
-59 -65 -83 86 0
59 65 83 -86 0
-65 -69 87 0
-69 -85 87 0
-65 -85 87 0
65 69 -87 0
69 85 -87 0
65 85 -87 0
-55 69 -87 0
-55 65 -87 0
-55 85 -87 0
55 -69 87 0
55 -65 87 0
55 -85 87 0
55 -65 -69 -85 0
-55 65 69 85 0
-58 69 0
-58 87 0
58 -69 -87 0
-63 -69 -87 0
-63 69 87 0
63 -69 87 0
63 69 -87 0
42 -74 0
54 -74 0
-42 -54 74 0
-42 -54 -81 0
42 54 -81 0
-42 54 81 0
42 -54 81 0
-57 60 -82 0
60 -74 -82 0
-57 60 -74 0
57 -60 82 0
-60 74 82 0
57 -60 74 0
-60 -66 82 0
57 -60 -66 0
-60 -66 74 0
60 66 -82 0
-57 60 66 0
60 66 -74 0
-57 66 -74 -82 0
57 -66 74 82 0
-62 70 -84 0
-60 70 -84 0
-60 -62 70 0
62 -70 84 0
60 -70 84 0
60 62 -70 0
-70 84 -88 0
62 -70 -88 0
60 -70 -88 0
70 -84 88 0
-62 70 88 0
-60 70 88 0
-60 -62 -84 88 0
60 62 84 -88 0
-73 -86 89 0
-70 -86 89 0
-70 -73 89 0
73 86 -89 0
70 86 -89 0
70 73 -89 0
-86 89 0
-73 89 0
-70 89 0
-70 -73 -86 0
-55 -80 90 0
-55 -89 90 0
-80 -89 90 0
55 80 -90 0
55 89 -90 0
80 89 -90 0
-55 90 0
-80 90 0
-89 90 0
-55 -80 -89 0
-59 -63 91 0
-63 -90 91 0
-59 -90 91 0
59 63 -91 0
63 90 -91 0
59 90 -91 0
-63 91 0
-59 91 0
-90 91 0
-59 -63 -90 0
-58 -65 92 0
-58 -91 92 0
-65 -91 92 0
58 65 -92 0
58 91 -92 0
65 91 -92 0
-58 92 0
-65 92 0
-91 92 0
-58 -65 -91 0
-69 -92 0
-69 92 0
69 -92 0
-54 -93 0
-46 -93 0
46 54 93 0
46 54 -94 0
-46 -54 -94 0
46 -54 94 0
-46 54 94 0
93 -95 0
-44 -95 0
44 -93 95 0
44 -93 -96 0
-44 93 -96 0
44 93 96 0
-44 -93 96 0
95 -97 0
-81 -97 0
81 -95 97 0
81 -95 -98 0
-81 95 -98 0
81 95 98 0
-81 -95 98 0
97 -99 0
-66 -99 0
66 -97 99 0
66 -97 -100 0
-66 97 -100 0
66 97 100 0
-66 -97 100 0
99 -101 0
-88 -101 0
88 -99 101 0
88 -99 -102 0
-88 99 -102 0
88 99 102 0
-88 -99 102 0
101 -103 0
-101 103 0
-40 -101 0
40 101 0
-39 103 0
39 -103 0
-38 -103 0
38 103 0
-37 39 0
37 -39 0
-36 -39 0
36 39 0
-35 37 0
35 -37 0
-34 -37 0
34 37 0
-33 35 0
33 -35 0
-32 -35 0
32 35 0
-31 33 0
31 -33 0
-30 -33 0
30 33 0
-27 -29 0
27 29 0
-25 -26 0
25 26 0
-22 -24 0
22 24 0
-20 -21 0
20 21 0
-17 -19 0
17 19 0
-15 -16 0
15 16 0
-14 21 0
14 -21 0
-13 -21 0
13 21 0
12 -14 -19 0
-12 19 0
-12 14 19 0
-12 14 0
-11 -12 19 0
-11 -12 0
-11 -12 14 0
11 12 -19 0
11 12 -14 0
-11 14 19 0
10 -16 -29 0
10 -12 -16 0
10 -12 -29 0
-10 16 29 0
-10 12 16 0
-10 12 29 0
-9 -10 16 0
-9 -10 29 0
-9 -10 12 0
9 10 -16 0
9 10 -29 0
9 10 -12 0
9 -12 -16 -29 0
-9 12 16 29 0
-8 26 0
-8 10 0
8 -10 -26 0
10 -26 0
-10 26 0
-7 24 0
-7 8 0
7 -8 -24 0
8 -24 0
-8 24 0
-6 21 0
-6 7 0
6 -7 -21 0
7 -21 0
-7 21 0
-5 19 0
-5 6 0
5 -6 -19 0
6 -19 0
-6 19 0
-5 -16 0
5 -16 0
-5 16 0
-29 -64 0
29 64 0
-4 -26 0
4 26 0
-24 -28 0
24 28 0
-13 -23 0
13 23 0
-11 -18 0
11 18 0
-3 -9 0
3 9 0
-2 54 0
-2 29 0
2 -29 -54 0
29 -54 0
-29 54 0
1 -26 -46 0
1 -2 -46 0
1 -2 -26 0
-1 26 46 0
-1 2 46 0
-1 2 26 0
1 -46 0
1 -26 0
1 -2 0
-2 -26 -46 0
-24 -44 78 0
-1 -44 78 0
-1 -24 78 0
24 44 -78 0
1 44 -78 0
1 24 -78 0
-44 78 0
-24 78 0
-1 78 0
-1 -24 -44 0
-13 67 -81 0
67 -78 -81 0
-13 67 -78 0
13 -67 81 0
-67 78 81 0
13 -67 78 0
67 -81 0
-13 67 0
67 -78 0
-13 -78 -81 0
-11 -66 75 0
-66 -67 75 0
-11 -67 75 0
11 66 -75 0
66 67 -75 0
11 67 -75 0
66 -75 0
11 -75 0
67 -75 0
11 66 67 0
-9 -88 0
-75 -88 0
-9 -75 0
9 75 88 0
